language Essence 1.3

letting class be
        function(1 --> 10, 2 --> 3, 3 --> 7, 4 --> 9, 5 --> 4, 6 --> 3, 7 --> 6, 8 --> 10, 9 --> 5, 10 --> 8, 11 --> 6,
                 12 --> 8, 13 --> 7, 14 --> 10, 15 --> 5, 16 --> 8, 17 --> 8, 18 --> 4, 19 --> 2, 20 --> 1, 21 --> 3,
                 22 --> 3, 23 --> 3, 24 --> 4)
letting deck_length be 93
letting deck_width be 39
letting length be
        function(1 --> 1, 2 --> 16, 3 --> 1, 4 --> 1, 5 --> 1, 6 --> 5, 7 --> 1, 8 --> 11, 9 --> 1, 10 --> 1, 11 --> 1,
                 12 --> 15, 13 --> 1, 14 --> 4, 15 --> 1, 16 --> 1, 17 --> 1, 18 --> 3, 19 --> 1, 20 --> 1, 21 --> 11,
                 22 --> 1, 23 --> 1, 24 --> 1)
letting n_classes be 10
letting n_containers be 24
letting separation be function({3, 5} --> 23, {3, 9} --> 22)
letting width be
        function(1 --> 1, 2 --> 10, 3 --> 1, 4 --> 1, 5 --> 1, 6 --> 29, 7 --> 1, 8 --> 2, 9 --> 1, 10 --> 1, 11 --> 1,
                 12 --> 25, 13 --> 1, 14 --> 2, 15 --> 1, 16 --> 1, 17 --> 1, 18 --> 9, 19 --> 1, 20 --> 1, 21 --> 27,
                 22 --> 1, 23 --> 1, 24 --> 1)
